[VALIDATOR STDOUT]
Checking plan: /home/jfan5/Safety-gen/runs/benchmark/optic/blocksworld_20260215_223618/blocksworld/optic_results/bw_ops3_n03_seed3001.plan
Plan to validate:

Plan size: 4
1:
(pickup b3)
 
2:
(stack b3 b2)
 
3:
(pickup b1)
 
4:
(stack b1 b3)
 

Plan Validation details
-----------------------

Checking next happening (time 1)
Deleting (clear b3)
Deleting (on-table b3)
Deleting (arm-empty)
Adding (holding b3)

Checking next happening (time 2)
Deleting (clear b2)
Deleting (holding b3)
Adding (arm-empty)
Adding (clear b3)
Adding (on b3 b2)

Checking next happening (time 3)
Deleting (clear b1)
Deleting (on-table b1)
Deleting (arm-empty)
Adding (holding b1)

Checking next happening (time 4)
Deleting (clear b3)
Deleting (holding b1)
Adding (arm-empty)
Adding (clear b1)
Adding (on b1 b3)
Plan executed successfully - checking goal
Plan valid
Final value: 4 

Successful plans:
Value: 4
 /home/jfan5/Safety-gen/runs/benchmark/optic/blocksworld_20260215_223618/blocksworld/optic_results/bw_ops3_n03_seed3001.plan 4
